% Generated FlatZinc statistics:
%%%mzn-stat: paths=99654
%%%mzn-stat: flatBoolVars=2302
%%%mzn-stat: flatIntVars=4923
%%%mzn-stat: flatSetVars=2500
%%%mzn-stat: flatIntConstraints=5573
%%%mzn-stat: flatSetConstraints=4102
%%%mzn-stat: evaluatedReifiedConstraints=2302
%%%mzn-stat: method="minimize"
%%%mzn-stat: flatTime=12.3469
%%%mzn-stat-end
w = 2480; 
link_objective = 31; 
cpu_objective = 80; 
services2locs = [7, 4, 14, 12, 2, 9, 11, 10, 8, 13, 6, 4, 6, 9, 4, 4, 5, 3, 8, 6, 10, 1, 2, 3, 14, 7, 12, 10, 5, 9, 14, 6, 9, 14, 10, 7, 5, 5, 13, 12, 3, 1, 7, 8, 3, 12, 1, 8, 1, 13];
locations2names = ["ECU1", "ECU2", "ECU3", "DM1", "DM2", "DM3", "CAM1", "CAM2", "CAM3", "CAM4", "Display1", "Display2", "Display3", "Display4", "Switch1", "Switch2", "Switch3", "Switch4", "Switch5"];
services2names = ["S3_Video_1", "S3_Video_2", "S4_BE_1", "S4_BE_2", "S1_C&C_2_1", "S2_Audio_1", "S1_C&C_2_2", "S4_BE_3", "S4_BE_4", "S1_C&C_1_1", "S4_BE_5", "S4_BE_6", "S3_Video_3", "S2_Audio_2", "S2_Audio_3", "S4_BE_7", "S1_C&C_1_2", "S3_Video_4", "S3_Video_5", "S2_Audio_4", "S4_BE_8", "S2_Audio_5", "S4_BE_9", "S4_BE_10", "S1_C&C_1_3", "S1_C&C_2_3", "S2_Audio_6", "S1_C&C_1_4", "S4_BE_11", "S1_C&C_1_5", "S4_BE_12", "S1_C&C_1_6", "S4_BE_13", "S1_C&C_1_7", "S1_C&C_1_8", "S3_Video_6", "S4_BE_14", "S4_BE_15", "S1_C&C_1_9", "S2_Audio_7", "S4_BE_16", "S4_BE_17", "S4_BE_18", "S2_Audio_8", "S3_Video_7", "S4_BE_19", "S4_BE_20", "S1_C&C_2_4", "S3_Video_8", "S2_Audio_9"];
shortest_path = [{}, {8,12,14}, {8,12,15}, {6,8,18}, {8,17}, {8,12,16}, {1,6,8}, {2,6,8}, {3,6,8}, {8,12,13}, {4,5,8}, {5,7,8}, {8,9,11,12}, {8,10,11,12}, {6,8}, 8..8, {8,12}, {5,8}, {8,11,12}, {8,12,14}, {}, 14..15, {6,12,14,18}, {12,14,17}, {14,16}, {1,6,12,14}, {2,6,12,14}, {3,6,12,14}, 13..14, {4,5,12,14}, {5,7,12,14}, {9,11,14}, {10,11,14}, {6,12,14}, {12,14}, 14..14, {5,12,14}, {11,14}, {8,12,15}, 14..15, {}, {6,12,15,18}, {12,15,17}, 15..16, {1,6,12,15}, {2,6,12,15}, {3,6,12,15}, {13,15}, {4,5,12,15}, {5,7,12,15}, {9,11,15}, {10,11,15}, {6,12,15}, {12,15}, 15..15, {5,12,15}, {11,15}, {6,8,18}, {6,12,14,18}, {6,12,15,18}, {}, {6,17,18}, {6,12,16,18}, {1,18}, {2,18}, {3,18}, {6,12,13,18}, {4,5,6,18}, {5,6,7,18}, {6,9,11,12,18}, {6,10,11,12,18}, 18..18, {6,18}, {6,12,18}, {5,6,18}, {6,11,12,18}, {8,17}, {12,14,17}, {12,15,17}, {6,17,18}, {}, {12,16,17}, {1,6,17}, {2,6,17}, {3,6,17}, {12,13,17}, {4,5,17}, {5,7,17}, {9,11,12,17}, {10,11,12,17}, {6,17}, 17..17, {12,17}, {5,17}, {11,12,17}, {8,12,16}, {14,16}, 15..16, {6,12,16,18}, {12,16,17}, {}, {1,6,12,16}, {2,6,12,16}, {3,6,12,16}, {13,16}, {4,5,12,16}, {5,7,12,16}, {9,11,16}, {10,11,16}, {6,12,16}, {12,16}, 16..16, {5,12,16}, {11,16}, {1,6,8}, {1,6,12,14}, {1,6,12,15}, {1,18}, {1,6,17}, {1,6,12,16}, {}, 1..2, {1,3}, {1,6,12,13}, {1,4,5,6}, {1,5,6,7}, {1,6,9,11,12}, {1,6,10,11,12}, 1..1, {1,6}, {1,6,12}, {1,5,6}, {1,6,11,12}, {2,6,8}, {2,6,12,14}, {2,6,12,15}, {2,18}, {2,6,17}, {2,6,12,16}, 1..2, {}, 2..3, {2,6,12,13}, {2,4,5,6}, {2,5,6,7}, {2,6,9,11,12}, {2,6,10,11,12}, 2..2, {2,6}, {2,6,12}, {2,5,6}, {2,6,11,12}, {3,6,8}, {3,6,12,14}, {3,6,12,15}, {3,18}, {3,6,17}, {3,6,12,16}, {1,3}, 2..3, {}, {3,6,12,13}, 3..6, {3,5,6,7}, {3,6,9,11,12}, {3,6,10,11,12}, 3..3, {3,6}, {3,6,12}, {3,5,6}, {3,6,11,12}, {8,12,13}, 13..14, {13,15}, {6,12,13,18}, {12,13,17}, {13,16}, {1,6,12,13}, {2,6,12,13}, {3,6,12,13}, {}, {4,5,12,13}, {5,7,12,13}, {9,11,13}, {10,11,13}, {6,12,13}, 12..13, 13..13, {5,12,13}, {11,13}, {4,5,8}, {4,5,12,14}, {4,5,12,15}, {4,5,6,18}, {4,5,17}, {4,5,12,16}, {1,4,5,6}, {2,4,5,6}, 3..6, {4,5,12,13}, {}, {4,7}, {4,5,9,11,12}, {4,5,10,11,12}, 4..6, 4..5, {4,5,12}, 4..4, {4,5,11,12}, {5,7,8}, {5,7,12,14}, {5,7,12,15}, {5,6,7,18}, {5,7,17}, {5,7,12,16}, {1,5,6,7}, {2,5,6,7}, {3,5,6,7}, {5,7,12,13}, {4,7}, {}, {5,7,9,11,12}, {5,7,10,11,12}, 5..7, {5,7}, {5,7,12}, 7..7, {5,7,11,12}, {8,9,11,12}, {9,11,14}, {9,11,15}, {6,9,11,12,18}, {9,11,12,17}, {9,11,16}, {1,6,9,11,12}, {2,6,9,11,12}, {3,6,9,11,12}, {9,11,13}, {4,5,9,11,12}, {5,7,9,11,12}, {}, 9..10, {6,9,11,12}, {9,11,12}, {9,11}, {5,9,11,12}, 9..9, {8,10,11,12}, {10,11,14}, {10,11,15}, {6,10,11,12,18}, {10,11,12,17}, {10,11,16}, {1,6,10,11,12}, {2,6,10,11,12}, {3,6,10,11,12}, {10,11,13}, {4,5,10,11,12}, {5,7,10,11,12}, 9..10, {}, {6,10,11,12}, 10..12, 10..11, {5,10,11,12}, 10..10, {6,8}, {6,12,14}, {6,12,15}, 18..18, {6,17}, {6,12,16}, 1..1, 2..2, 3..3, {6,12,13}, 4..6, 5..7, {6,9,11,12}, {6,10,11,12}, {}, 6..6, {6,12}, 5..6, {6,11,12}, 8..8, {12,14}, {12,15}, {6,18}, 17..17, {12,16}, {1,6}, {2,6}, {3,6}, 12..13, 4..5, {5,7}, {9,11,12}, 10..12, 6..6, {}, 12..12, 5..5, 11..12, {8,12}, 14..14, 15..15, {6,12,18}, {12,17}, 16..16, {1,6,12}, {2,6,12}, {3,6,12}, 13..13, {4,5,12}, {5,7,12}, {9,11}, 10..11, {6,12}, 12..12, {}, {5,12}, 11..11, {5,8}, {5,12,14}, {5,12,15}, {5,6,18}, {5,17}, {5,12,16}, {1,5,6}, {2,5,6}, {3,5,6}, {5,12,13}, 4..4, 7..7, {5,9,11,12}, {5,10,11,12}, 5..6, 5..5, {5,12}, {}, {5,11,12}, {8,11,12}, {11,14}, {11,15}, {6,11,12,18}, {11,12,17}, {11,16}, {1,6,11,12}, {2,6,11,12}, {3,6,11,12}, {11,13}, {4,5,11,12}, {5,7,11,12}, 9..9, 10..10, {6,11,12}, 11..12, 11..11, {5,11,12}, {}];
cpu_usage = [80, 40, 80, 80, 80, 80, 80, 80, 80, 80, 20, 80, 60, 80, 0, 0, 0, 0, 0]; 
slack = [76824928, 74917920, 76575872, 99768704, 95762592, 68312032, 95993888, 92575952, 96059744, 84067248, 80554448, 68182832, 99207600, 99960192, 85075952, 980046048, 96005600, 90885920]; 
charge = [23, 25, 23, 0, 4, 31, 4, 7, 3, 15, 19, 31, 0, 0, 14, 1, 3, 9]; 
----------
%%%mzn-stat: initTime=0.268747
%%%mzn-stat: solveTime=7.70831
%%%mzn-stat: solutions=22
%%%mzn-stat: variables=9730
%%%mzn-stat: propagators=9675
%%%mzn-stat: propagations=3463154
%%%mzn-stat: nodes=2070
%%%mzn-stat: failures=969
%%%mzn-stat: restarts=0
%%%mzn-stat: peakDepth=59
%%%mzn-stat-end
%%%mzn-stat: nSolutions=1
%%%mzn-stat-end
